p cnf 409 1020
a 279 280 281 282 283 284 285 286 287 288 289 290 291 292 293 294 295 296 297 298 299 300 301 302 303 304 305 306 307 308 309 310 311 312 313 314 315 316 317 318 319 320 321 322 323 324 325 326 327 328 329 330 331 332 333 334 335 336 337 338 339 340 341 342 343 0
e 216 217 218 219 220 221 222 223 224 225 226 227 228 229 230 231 232 233 234 235 236 237 238 239 240 241 242 243 244 245 246 247 248 249 250 251 252 253 254 255 256 257 258 259 260 261 262 263 264 265 266 267 268 269 270 271 272 273 274 275 276 277 278 2 3 4 5 6 7 8 9 10 11 12 13 14 15 16 17 18 19 20 21 22 23 24 25 26 27 28 29 30 31 32 33 34 35 36 37 38 39 40 41 42 43 44 45 46 47 48 49 50 51 52 53 54 55 56 57 58 59 60 61 62 63 64 65 66 67 68 69 70 71 72 73 74 75 76 77 78 79 80 81 82 83 84 85 86 87 88 89 90 91 92 93 94 95 96 97 98 99 100 101 102 103 104 105 106 107 108 109 110 111 112 113 114 115 116 117 118 119 120 121 122 123 124 125 126 127 128 129 130 131 132 133 134 135 136 137 138 139 140 141 142 143 144 145 146 147 148 149 150 151 152 153 154 155 156 157 158 159 160 161 162 163 164 165 166 167 168 169 170 171 172 173 174 175 176 177 178 179 180 181 182 183 184 185 186 187 188 189 190 191 192 193 194 195 196 197 198 199 200 201 202 203 204 205 206 207 208 209 210 211 212 213 214 215 409 0
4 342 5 -164 -194 0
4 -342 -5 -164 -194 0
194 -4 0
5 -4 -342 0
164 -4 0
342 -4 -5 0
5 -343 -6 0
5 343 -150 -155 0
343 150 -5 0
6 -5 -343 0
343 155 -5 0
6 -7 -28 0
6 20 25 -28 0
28 -6 0
7 -6 -20 0
7 -6 -25 0
7 -8 -9 0
8 -7 0
9 -7 0
8 287 -288 -289 0
8 288 290 -287 0
8 288 289 -287 0
289 -8 -288 0
-8 -287 -289 -290 0
-8 -287 -288 0
287 288 -8 0
9 10 18 -14 0
-9 -10 0
14 -9 0
-9 -18 0
10 -11 -13 0
10 11 13 0
11 -10 -13 0
13 -10 -11 0
11 290 -291 0
11 289 -291 -12 0
291 -11 0
12 -11 -290 0
-11 -289 -290 0
12 287 288 0
-12 -287 0
-12 -288 0
13 289 -287 0
13 289 -288 0
-13 -289 0
287 288 -13 0
14 17 -15 0
14 17 -16 0
14 287 17 0
-14 -17 0
15 16 -14 -287 0
15 -288 -289 0
288 -15 0
289 -15 0
16 288 289 -291 0
16 288 290 -289 0
16 288 289 -290 0
-16 -288 0
-16 -289 -290 0
289 290 291 -16 0
17 287 -288 -289 0
17 287 290 -289 0
17 287 288 289 -290 0
289 -17 -288 0
289 290 -17 0
-17 -287 0
288 -17 -289 -290 0
18 -288 -19 0
18 288 290 19 0
18 -288 -290 0
18 287 290 -19 0
288 -18 -290 0
290 19 -18 -288 0
288 -18 -287 -19 0
19 289 -291 0
-19 -289 0
291 -19 0
20 -258 -21 -23 0
20 23 24 -21 0
21 -20 0
23 -20 -24 0
258 -20 -23 0
21 -8 -14 -22 0
8 -21 0
14 -21 0
22 -21 0
22 10 -18 0
-22 -10 0
18 -22 0
23 338 -339 0
-23 -338 0
339 -23 0
24 -258 -321 0
24 258 321 0
258 -24 -321 0
321 -24 -258 0
25 21 24 26 0
25 21 -258 -26 0
-25 -21 0
258 -25 -26 0
26 -25 -24 0
26 -338 -27 0
338 -26 0
27 -26 0
27 10 14 18 -8 0
-27 -18 0
-27 -14 0
8 -27 0
-27 -10 0
28 29 -33 -46 -138 0
-28 -29 0
138 -28 0
46 -28 0
33 -28 0
29 31 -266 -26 0
29 26 30 31 0
-29 -31 0
266 -29 -26 0
26 -29 -30 0
30 -266 -329 0
30 266 329 0
266 -30 -329 0
329 -30 -266 0
31 14 -22 -32 0
32 -31 0
22 -31 0
-31 -14 0
32 287 288 -290 0
32 287 289 -288 0
32 287 288 -289 0
-32 -287 0
-32 -288 -289 0
288 289 290 -32 0
33 -39 -40 0
33 44 -34 0
33 -34 -40 0
33 44 -39 0
40 -33 -44 0
34 39 -33 0
34 21 27 -36 0
34 21 -27 -35 0
-34 -21 0
35 -34 -27 0
27 36 -34 0
35 275 276 339 0
35 275 276 -338 0
35 275 338 -276 -339 0
-35 -276 -338 0
339 -35 -276 0
-35 -275 0
276 338 -35 -339 0
36 37 -38 0
-36 -37 0
38 -36 0
37 338 339 -276 0
37 276 338 -339 0
-37 -338 0
-37 -276 -339 0
276 339 -37 0
38 -275 -338 0
38 275 338 0
275 -38 -338 0
338 -38 -275 0
39 -275 -338 -21 0
39 275 276 338 -21 0
338 -39 -276 0
275 -39 -338 0
21 -39 0
338 -39 -275 0
40 27 -280 -41 -43 0
43 -40 0
280 -40 0
41 -40 0
-40 -27 0
41 -42 -9 0
42 -41 0
9 -41 0
42 -287 -288 0
42 -287 -289 -290 0
287 -42 0
288 290 -42 0
288 289 -42 0
43 296 297 -340 0
340 -43 0
-43 -297 0
-43 -296 0
44 280 26 -217 0
44 -217 -26 -45 0
44 217 26 -280 0
44 217 45 -26 0
217 -44 -26 -45 0
26 -44 -217 -280 0
45 -44 -217 -26 0
217 280 26 -44 0
45 337 -304 0
45 337 -305 0
-45 -337 0
304 305 -45 0
46 219 47 -48 -55 0
46 -219 -47 -48 -55 0
55 -46 0
47 -46 -219 0
48 -46 0
219 -46 -47 0
47 7 -282 0
282 -47 0
-47 -7 0
48 49 -31 -51 0
48 31 -50 -51 0
51 -48 0
31 50 -48 0
-48 -31 -49 0
49 -266 -281 0
49 281 30 0
266 -49 -281 0
281 -49 -30 0
50 -259 -322 0
50 259 322 0
259 -50 -322 0
322 -50 -259 0
51 52 54 0
51 54 -53 0
51 21 54 0
-51 -54 0
53 -51 -21 -52 0
52 338 -329 -339 0
329 -52 0
-52 -338 0
339 -52 0
53 -268 -304 0
53 268 304 -269 -305 0
53 268 269 304 305 0
304 -53 -268 0
268 305 -53 -269 0
268 -53 -304 0
269 304 -53 -305 0
54 282 24 -7 0
54 -258 -282 -7 0
7 -54 0
258 -54 -282 0
282 -54 -24 0
55 56 90 -58 -95 0
58 -55 0
-55 -90 0
-55 -56 0
95 -55 0
56 335 -272 0
56 272 41 -335 0
56 272 57 -335 0
-56 -272 -335 0
272 335 -56 0
272 -56 -41 -57 0
57 296 297 0
-57 -296 0
-57 -297 0
58 81 87 -59 -69 0
69 -58 0
-58 -87 0
59 -58 0
-58 -81 0
59 60 62 64 68 0
59 64 68 -60 -62 0
-59 -64 0
62 -59 -60 0
-59 -68 0
60 -59 -62 0
60 323 -61 0
60 61 -323 0
-60 -323 -61 0
323 61 -60 0
61 324 -325 0
-61 -324 0
325 -61 0
62 260 -63 0
62 63 -260 0
-62 -260 -63 0
260 63 -62 0
63 261 -262 0
-63 -261 0
262 -63 0
64 -65 -66 -67 0
65 -64 0
66 -64 0
67 -64 0
65 323 -324 0
65 324 325 -323 0
-65 -323 -324 0
324 -65 -325 0
323 324 -65 0
66 298 333 -299 -334 0
299 -66 0
-66 -333 0
-66 -298 0
334 -66 0
67 334 -310 0
67 311 -333 0
67 311 334 0
67 -310 -333 0
310 -67 -311 0
333 -67 -334 0
68 333 -270 0
68 270 334 -271 0
68 270 -333 0
68 271 333 -334 0
-68 -270 -333 0
270 333 -68 -271 -334 0
270 271 333 334 -68 0
69 70 71 -72 -75 0
69 -70 -71 -72 -75 0
75 -69 0
71 -69 -70 0
72 -69 0
70 -69 -71 0
70 -326 -327 0
70 -326 -328 0
326 -70 0
327 328 -70 0
71 -263 -264 0
71 -263 -265 0
263 -71 0
264 265 -71 0
72 -229 -73 0
72 -235 -74 0
72 -229 -235 0
72 -73 -74 0
235 73 -72 0
229 74 -72 0
73 -236 -299 0
73 236 299 0
236 -73 -299 0
299 -73 -236 0
74 -230 -293 0
74 230 293 0
230 -74 -293 0
293 -74 -230 0
75 -342 -76 -77 -78 0
78 -75 0
342 -75 0
77 -75 0
76 -75 0
76 -278 -341 0
76 278 341 0
278 -76 -341 0
341 -76 -278 0
77 235 298 -229 -292 0
77 229 292 -235 -298 0
77 229 235 292 298 0
77 -229 -235 -292 -298 0
292 -77 -229 0
229 -77 -292 0
235 -77 -298 0
298 -77 -235 0
78 -79 -80 0
79 -78 0
80 -78 0
79 247 310 -244 -307 0
79 244 307 -247 -310 0
79 244 247 307 310 0
79 -244 -247 -307 -310 0
307 -79 -244 0
244 -79 -307 0
247 -79 -310 0
310 -79 -247 0
80 253 316 -220 -283 0
80 220 283 -253 -316 0
80 220 253 283 316 0
80 -220 -253 -283 -316 0
283 -80 -220 0
220 -80 -283 0
253 -80 -316 0
316 -80 -253 0
81 85 -285 -82 0
81 285 -82 -85 0
81 286 85 -82 0
82 -81 0
-81 -285 -85 0
285 85 -81 -286 0
82 300 -333 -84 0
82 333 -300 -84 0
82 300 -83 -84 0
84 -82 0
-82 -300 -333 0
300 333 83 -82 0
83 301 -334 0
83 334 -301 0
-83 -301 -334 0
301 334 -83 0
84 326 -327 0
84 327 328 -326 0
-84 -326 -327 0
327 -84 -328 0
326 327 -84 0
85 326 -86 0
85 86 -326 0
-85 -326 -86 0
326 86 -85 0
86 327 -328 0
-86 -327 0
328 -86 0
87 285 286 -88 0
87 60 -285 -88 0
87 285 -60 -88 0
88 -87 0
-87 -285 -60 0
285 60 -87 -286 0
88 -65 -89 0
65 -88 0
89 -88 0
89 333 -298 0
89 298 334 -299 0
89 298 -333 0
89 299 333 -334 0
-89 -298 -333 0
298 333 -89 -299 -334 0
298 299 333 334 -89 0
90 246 -91 0
90 91 -246 0
-90 -246 -91 0
246 91 -90 0
91 -309 -92 0
91 92 -283 0
283 92 -91 0
309 -91 -92 0
92 93 94 -284 -321 0
321 -92 0
-92 -94 0
284 -92 0
-92 -93 0
93 292 293 0
-93 -292 0
-93 -293 0
94 314 -315 0
-94 -314 0
315 -94 0
95 -96 -107 -115 -123 0
123 -95 0
96 -95 0
115 -95 0
107 -95 0
96 65 102 -97 -103 0
96 -65 -97 -102 -103 0
103 -96 0
102 -96 -65 0
97 -96 0
65 -96 -102 0
97 -98 -99 -100 -101 0
101 -97 0
98 -97 0
100 -97 0
99 -97 0
98 273 336 -241 -304 0
98 241 304 -273 -336 0
98 241 273 304 336 0
98 -241 -273 -304 -336 0
304 -98 -241 0
241 -98 -304 0
273 -98 -336 0
336 -98 -273 0
99 256 319 -221 -284 0
99 221 284 -256 -319 0
99 221 256 284 319 0
99 -221 -256 -284 -319 0
284 -99 -221 0
221 -99 -284 0
256 -99 -319 0
319 -99 -256 0
100 243 306 -222 -285 0
100 222 285 -243 -306 0
100 222 243 285 306 0
100 -222 -243 -285 -306 0
285 -100 -222 0
222 -100 -285 0
243 -100 -306 0
306 -100 -243 0
101 267 330 -255 -318 0
101 255 318 -267 -330 0
101 255 267 318 330 0
101 -255 -267 -318 -330 0
318 -101 -255 0
255 -101 -318 0
267 -101 -330 0
330 -101 -267 0
102 260 -261 0
102 261 262 -260 0
-102 -260 -261 0
261 -102 -262 0
260 261 -102 0
103 85 105 -84 -104 0
103 84 104 -85 -105 0
103 84 85 104 105 0
103 -84 -85 -104 -105 0
104 -103 -84 0
84 -103 -104 0
85 -103 -105 0
105 -103 -85 0
104 263 -264 0
104 264 265 -263 0
-104 -263 -264 0
264 -104 -265 0
263 264 -104 0
105 263 -106 0
105 106 -263 0
-105 -263 -106 0
263 106 -105 0
106 264 -265 0
-106 -264 0
265 -106 0
107 113 -108 -111 -112 0
107 111 112 113 -108 0
-107 -113 0
112 -107 -111 0
108 -107 0
111 -107 -112 0
108 94 109 -241 0
108 -241 -94 -109 0
108 94 109 -110 0
108 -94 -109 -110 0
109 -108 -94 0
94 -108 -109 0
241 110 -108 0
109 251 -252 0
-109 -251 0
252 -109 0
110 -242 -305 0
110 242 305 0
242 -110 -305 0
305 -110 -242 0
111 256 -257 0
-111 -256 0
257 -111 0
112 319 -320 0
-112 -319 0
320 -112 0
113 57 -114 0
113 302 57 -337 0
-113 -57 0
114 -113 -302 0
337 114 -113 0
114 303 -280 0
280 -114 0
-114 -303 0
115 116 -247 -118 0
115 116 -117 -118 0
118 -115 0
-115 -116 0
247 117 -115 0
116 237 -300 0
116 237 301 -238 0
-116 -237 0
300 -116 -301 0
238 300 -116 0
117 -248 -311 0
117 248 311 0
248 -117 -311 0
311 -117 -248 0
118 119 -121 -122 0
118 121 122 -120 0
118 119 121 122 0
118 -120 -121 -122 0
121 -118 -122 0
122 -118 -121 0
120 -118 -119 0
119 -323 -324 0
119 -323 -325 0
323 -119 0
324 325 -119 0
120 -260 -261 0
120 -260 -262 0
260 -120 0
261 262 -120 0
121 249 250 0
-121 -249 0
-121 -250 0
122 312 313 0
-122 -312 0
-122 -313 0
123 124 125 -126 -131 0
123 -124 -125 -126 -131 0
131 -123 0
125 -123 -124 0
126 -123 0
124 -123 -125 0
124 314 315 0
-124 -314 0
-124 -315 0
125 251 252 0
-125 -251 0
-125 -252 0
126 127 128 -129 -130 0
126 -127 -128 -129 -130 0
126 127 128 129 130 0
126 129 130 -127 -128 0
127 -126 -128 0
128 -126 -127 0
129 -126 -130 0
130 -126 -129 0
127 216 278 0
-127 -216 0
-127 -278 0
128 279 341 0
-128 -279 0
-128 -341 0
129 249 -250 0
-129 -249 0
250 -129 0
130 312 -313 0
-130 -312 0
313 -130 0
131 132 133 134 -135 0
131 132 -133 -134 -135 0
135 -131 0
134 -131 -133 0
-131 -132 0
133 -131 -134 0
132 300 -237 0
132 238 300 -301 0
-132 -300 0
237 -132 -238 0
237 301 -132 0
133 253 -254 0
-133 -253 0
254 -133 0
134 316 -317 0
-134 -316 0
317 -134 0
135 120 136 137 0
135 -119 -136 -137 0
135 136 137 -119 0
135 120 -136 -137 0
136 -135 -137 0
137 -135 -136 0
119 -135 -120 0
136 285 286 0
-136 -285 0
-136 -286 0
137 222 223 0
-137 -222 0
-137 -223 0
138 27 139 -143 0
138 -27 -140 -143 0
143 -138 0
27 -138 -139 0
140 -138 -27 0
139 337 -274 0
139 274 41 -337 0
139 274 43 -337 0
-139 -274 -337 0
274 337 -139 0
274 -139 -41 -43 0
140 142 -141 0
140 -274 -142 0
141 142 -140 0
274 -140 -142 0
141 -274 -337 0
141 274 337 0
274 -141 -337 0
337 -141 -274 0
142 304 305 -338 0
338 -142 0
-142 -305 0
-142 -304 0
143 -144 -145 0
143 -21 -52 -145 0
145 -143 0
21 144 -143 0
52 144 -143 0
144 -268 -331 0
144 268 331 -269 -332 0
144 268 269 331 332 0
331 -144 -268 0
268 332 -144 -269 0
268 -144 -331 0
269 331 -144 -332 0
145 31 146 -149 0
145 146 -31 -148 0
-145 -146 0
148 -145 -31 0
31 149 -145 0
146 338 147 0
146 27 147 0
146 277 -338 -27 0
338 -146 -147 0
27 -146 -147 0
-146 -277 -338 -27 0
147 -277 -340 0
147 277 340 0
277 -147 -340 0
340 -147 -277 0
148 218 281 -50 0
148 218 259 -281 0
-148 -218 0
-148 -259 -281 0
281 50 -148 0
149 -218 -281 0
149 218 281 0
218 -149 -281 0
281 -149 -218 0
150 62 105 154 -151 0
-150 -62 0
-150 -154 0
151 -150 0
-150 -105 0
151 -152 -153 -125 -127 0
127 -151 0
152 -151 0
125 -151 0
153 -151 0
152 260 261 0
-152 -260 0
-152 -261 0
153 263 264 0
-153 -263 0
-153 -264 0
154 270 -268 0
154 268 269 -270 0
154 269 270 -271 0
268 -154 -269 0
-154 -268 -270 0
268 270 271 -154 0
155 -156 -160 -162 -163 0
163 -155 0
156 -155 0
162 -155 0
160 -155 0
156 157 -158 0
156 270 -271 -158 0
158 -156 0
-156 -270 -157 0
271 -156 -157 0
157 268 -269 0
-157 -268 0
269 -157 0
158 275 276 277 -159 0
159 -158 0
-158 -277 0
-158 -275 0
-158 -276 0
159 267 272 273 274 0
-159 -274 0
-159 -273 0
-159 -267 0
-159 -272 0
160 249 250 -137 -161 0
-160 -249 0
161 -160 0
137 -160 0
-160 -250 0
161 217 218 219 221 0
-161 -221 0
-161 -219 0
-161 -217 0
-161 -218 0
162 257 258 259 266 0
-162 -266 0
-162 -259 0
-162 -257 0
-162 -258 0
163 253 254 255 256 0
-163 -256 0
-163 -255 0
-163 -253 0
-163 -254 0
164 -97 -165 -176 -190 0
190 -164 0
97 -164 0
176 -164 0
165 -164 0
165 -166 -169 -170 -173 0
173 -165 0
166 -165 0
170 -165 0
169 -165 0
166 225 288 167 168 0
166 167 168 -225 -288 0
-166 -167 0
288 -166 -225 0
-166 -168 0
225 -166 -288 0
167 325 -262 0
262 -167 0
-167 -325 0
168 227 -290 0
-168 -227 0
290 -168 0
169 232 295 -231 -294 0
169 231 294 -232 -295 0
169 231 232 294 295 0
169 -231 -232 -294 -295 0
294 -169 -231 0
231 -169 -294 0
232 -169 -295 0
295 -169 -232 0
170 240 303 171 172 0
170 171 172 -240 -303 0
-170 -171 0
303 -170 -240 0
-170 -172 0
240 -170 -303 0
171 308 -245 0
245 -171 0
-171 -308 0
172 226 -289 0
-172 -226 0
289 -172 0
173 260 323 174 175 0
173 174 175 -260 -323 0
-173 -174 0
323 -173 -260 0
-173 -175 0
260 -173 -323 0
174 290 -227 0
227 -174 0
-174 -290 0
175 245 -308 0
-175 -245 0
308 -175 0
176 -177 -181 -184 -187 0
187 -176 0
177 -176 0
184 -176 0
181 -176 0
177 317 178 -179 0
177 178 -254 -179 0
179 -177 0
-177 -178 0
254 -177 -317 0
178 301 -238 0
238 -178 0
-178 -301 0
179 180 -297 0
179 234 180 0
-179 -180 0
297 -179 -234 0
180 238 -301 0
-180 -238 0
301 -180 0
181 263 326 182 183 0
181 182 183 -263 -326 0
-181 -182 0
326 -181 -263 0
-181 -183 0
263 -181 -326 0
182 261 -324 0
-182 -261 0
324 -182 0
183 317 -254 0
254 -183 0
-183 -317 0
184 250 313 185 186 0
184 185 186 -250 -313 0
-184 -185 0
313 -184 -250 0
-184 -186 0
250 -184 -313 0
185 264 -327 0
-185 -264 0
327 -185 0
186 262 -325 0
-186 -262 0
325 -186 0
187 246 309 188 189 0
187 188 189 -246 -309 0
-187 -188 0
309 -187 -246 0
-187 -189 0
246 -187 -309 0
188 234 -297 0
-188 -234 0
297 -188 0
189 327 -264 0
264 -189 0
-189 -327 0
190 -191 -79 -80 -192 0
192 -190 0
191 -190 0
80 -190 0
79 -190 0
191 271 334 -270 -333 0
191 270 333 -271 -334 0
191 270 271 333 334 0
191 -270 -271 -333 -334 0
333 -191 -270 0
270 -191 -333 0
271 -191 -334 0
334 -191 -271 0
192 -328 -193 0
192 265 -193 0
193 -192 0
328 -192 -265 0
193 226 251 0
193 -289 -314 0
193 226 -314 0
193 251 -289 0
289 -193 -226 0
314 -193 -251 0
194 -195 -206 -214 -215 0
215 -194 0
195 -194 0
214 -194 0
206 -194 0
195 -77 -196 -202 -203 0
203 -195 0
77 -195 0
202 -195 0
196 -195 0
196 -24 -197 -198 -199 0
199 -196 0
24 -196 0
198 -196 0
197 -196 0
197 -272 -335 0
197 272 335 0
272 -197 -335 0
335 -197 -272 0
198 223 286 -216 -279 0
198 216 279 -223 -286 0
198 216 223 279 286 0
198 -216 -223 -279 -286 0
279 -198 -216 0
216 -198 -279 0
223 -198 -286 0
286 -198 -223 0
199 219 282 -76 -200 0
199 -219 -282 -76 -200 0
200 -199 0
282 -199 -219 0
76 -199 0
219 -199 -282 0
200 -268 -331 -201 0
200 268 331 -201 0
201 -200 0
331 -200 -268 0
268 -200 -331 0
201 -217 -280 0
201 217 280 0
217 -201 -280 0
280 -201 -217 0
202 252 315 -233 -296 0
202 233 296 -252 -315 0
202 233 252 296 315 0
202 -233 -252 -296 -315 0
296 -202 -233 0
233 -202 -296 0
252 -202 -315 0
315 -202 -252 0
203 -204 -50 -74 -205 0
205 -203 0
204 -203 0
74 -203 0
50 -203 0
204 -276 -339 0
204 276 339 0
276 -204 -339 0
339 -204 -276 0
205 -269 -332 0
205 269 332 0
269 -205 -332 0
332 -205 -269 0
206 -207 -210 -211 -212 0
212 -206 0
207 -206 0
211 -206 0
210 -206 0
207 249 312 209 -208 0
207 209 -249 -312 -208 0
-207 -209 0
312 -207 -249 0
208 -207 0
249 -207 -312 0
208 257 320 -228 -291 0
208 228 291 -257 -320 0
208 228 257 291 320 0
208 -228 -257 -291 -320 0
291 -208 -228 0
228 -208 -291 0
257 -208 -320 0
320 -208 -257 0
209 239 -302 0
209 302 -239 0
-209 -239 -302 0
239 302 -209 0
210 287 -265 0
210 328 -224 0
210 -224 -265 0
210 287 328 0
265 -210 -328 0
224 -210 -287 0
211 237 261 0
211 -300 -324 0
211 237 -324 0
211 261 -300 0
300 -211 -237 0
324 -211 -261 0
212 -251 -343 -213 0
212 314 -343 -213 0
213 -212 0
343 -212 0
251 -212 -314 0
213 -237 -287 0
213 224 300 0
213 224 -237 0
213 300 -287 0
287 -213 -224 0
237 -213 -300 0
214 -38 -141 -147 -149 0
149 -214 0
38 -214 0
147 -214 0
141 -214 0
215 -30 -73 -110 -117 0
117 -215 0
30 -215 0
110 -215 0
73 -215 0
409 0
2 4 0
-2 -4 0
3 4 0
-3 -4 0
3 0
